language Essence 1.3

letting bot_end be [935, 16, 31, 1130, 248, 93, 1, 6, 1111, 158, 1086, 1136, 217, 244, 30, 49, 178; int(1..17)]
letting bot_start be
        [39, 655, 693, 121, 1126, 938, 719, 1045, 339, 853, 144, 179, 1139, 1119, 724, 671, 815; int(1..17)]
letting buffer_col be 2
letting buffer_row be 2
letting corridor_size be 1
letting n_shelves_col be 4
letting n_shelves_row be 34
letting shelf_col_size be 2
letting shelf_row_size be 1
